c "480754.clq"
p edge 195 2864
e 1 17
e 1 18
e 1 19
e 1 20
e 1 23
e 1 26
e 1 28
e 1 30
e 1 31
e 1 33
e 1 34
e 1 37
e 1 38
e 1 39
e 1 41
e 1 42
e 1 43
e 1 45
e 1 46
e 1 51
e 1 52
e 1 57
e 1 58
e 1 92
e 1 93
e 1 95
e 1 128
e 1 134
e 1 143
e 1 169
e 1 182
e 2 17
e 2 18
e 2 19
e 2 26
e 2 47
e 2 104
e 2 118
e 2 125
e 2 132
e 2 141
e 2 147
e 2 174
e 2 178
e 3 17
e 3 18
e 3 20
e 3 21
e 3 22
e 3 23
e 3 24
e 3 25
e 3 28
e 3 29
e 3 30
e 3 31
e 3 32
e 3 34
e 3 36
e 3 40
e 3 41
e 3 43
e 3 47
e 3 49
e 3 50
e 3 51
e 3 52
e 3 55
e 3 56
e 3 58
e 3 59
e 3 72
e 3 74
e 3 77
e 3 79
e 3 81
e 3 88
e 3 94
e 3 95
e 3 105
e 3 106
e 3 121
e 3 128
e 3 129
e 3 139
e 3 141
e 3 142
e 3 144
e 3 146
e 3 158
e 3 163
e 3 175
e 3 179
e 3 193
e 3 194
e 4 17
e 4 18
e 4 19
e 4 20
e 4 21
e 4 22
e 4 24
e 4 25
e 4 33
e 4 35
e 4 38
e 4 39
e 4 43
e 4 45
e 4 47
e 4 50
e 4 56
e 4 79
e 4 81
e 4 113
e 4 121
e 4 183
e 5 17
e 5 18
e 5 19
e 5 20
e 5 21
e 5 22
e 5 24
e 5 25
e 5 26
e 5 27
e 5 28
e 5 30
e 5 31
e 5 32
e 5 34
e 5 35
e 5 37
e 5 38
e 5 43
e 5 47
e 5 48
e 5 55
e 5 59
e 5 60
e 5 61
e 5 64
e 5 65
e 5 71
e 5 83
e 5 92
e 5 97
e 5 104
e 5 111
e 5 132
e 5 135
e 5 136
e 5 137
e 5 141
e 5 154
e 5 174
e 5 175
e 5 181
e 5 193
e 6 17
e 6 19
e 6 20
e 6 21
e 6 22
e 6 23
e 6 31
e 6 35
e 6 43
e 6 59
e 6 66
e 6 67
e 6 68
e 6 69
e 6 73
e 6 83
e 6 89
e 6 91
e 6 93
e 6 97
e 6 100
e 6 125
e 6 131
e 6 138
e 6 148
e 6 153
e 6 167
e 6 169
e 6 181
e 7 17
e 7 18
e 7 19
e 7 20
e 7 21
e 7 22
e 7 23
e 7 24
e 7 25
e 7 26
e 7 27
e 7 28
e 7 29
e 7 34
e 7 35
e 7 37
e 7 46
e 7 56
e 7 66
e 7 71
e 7 76
e 7 87
e 7 99
e 7 100
e 7 108
e 7 111
e 7 133
e 7 137
e 7 138
e 7 144
e 7 156
e 7 157
e 7 160
e 7 162
e 7 172
e 7 173
e 7 177
e 8 17
e 8 18
e 8 19
e 8 21
e 8 22
e 8 23
e 8 24
e 8 25
e 8 26
e 8 27
e 8 28
e 8 29
e 8 30
e 8 31
e 8 32
e 8 33
e 8 35
e 8 36
e 8 38
e 8 40
e 8 43
e 8 44
e 8 48
e 8 50
e 8 52
e 8 54
e 8 55
e 8 59
e 8 61
e 8 62
e 8 63
e 8 65
e 8 67
e 8 68
e 8 69
e 8 72
e 8 78
e 8 79
e 8 81
e 8 82
e 8 83
e 8 84
e 8 90
e 8 92
e 8 95
e 8 97
e 8 99
e 8 109
e 8 110
e 8 118
e 8 119
e 8 123
e 8 125
e 8 127
e 8 131
e 8 136
e 8 142
e 8 151
e 8 165
e 8 171
e 8 172
e 8 181
e 8 182
e 8 183
e 8 184
e 9 17
e 9 18
e 9 19
e 9 21
e 9 22
e 9 23
e 9 24
e 9 26
e 9 27
e 9 29
e 9 37
e 9 39
e 9 41
e 9 42
e 9 43
e 9 45
e 9 48
e 9 50
e 9 53
e 9 54
e 9 55
e 9 64
e 9 65
e 9 66
e 9 68
e 9 84
e 9 85
e 9 88
e 9 89
e 9 92
e 9 94
e 9 100
e 9 102
e 9 103
e 9 112
e 9 113
e 9 114
e 9 117
e 9 124
e 9 133
e 9 140
e 9 151
e 9 153
e 9 167
e 9 174
e 9 190
e 10 17
e 10 18
e 10 19
e 10 20
e 10 21
e 10 24
e 10 25
e 10 27
e 10 30
e 10 31
e 10 32
e 10 36
e 10 37
e 10 38
e 10 39
e 10 43
e 10 44
e 10 48
e 10 49
e 10 60
e 10 65
e 10 67
e 10 70
e 10 71
e 10 73
e 10 78
e 10 79
e 10 80
e 10 82
e 10 86
e 10 96
e 10 107
e 10 110
e 10 122
e 10 127
e 10 128
e 10 132
e 10 139
e 10 145
e 10 152
e 10 155
e 10 158
e 10 163
e 10 174
e 10 178
e 10 184
e 10 189
e 10 190
e 10 191
e 11 17
e 11 18
e 11 19
e 11 20
e 11 21
e 11 23
e 11 25
e 11 26
e 11 27
e 11 28
e 11 32
e 11 58
e 11 61
e 11 63
e 11 69
e 11 70
e 11 74
e 11 77
e 11 78
e 11 82
e 11 86
e 11 94
e 11 136
e 11 137
e 11 139
e 11 150
e 11 153
e 11 165
e 11 181
e 11 185
e 11 186
e 11 190
e 12 17
e 12 18
e 12 19
e 12 20
e 12 22
e 12 24
e 12 28
e 12 29
e 12 41
e 12 42
e 12 44
e 12 46
e 12 56
e 12 62
e 12 67
e 12 75
e 12 77
e 12 80
e 12 82
e 12 107
e 12 119
e 12 165
e 12 179
e 12 181
e 13 17
e 13 18
e 13 19
e 13 20
e 13 21
e 13 22
e 13 25
e 13 26
e 13 28
e 13 29
e 13 30
e 13 31
e 13 33
e 13 34
e 13 36
e 13 40
e 13 41
e 13 43
e 13 46
e 13 48
e 13 51
e 13 53
e 13 59
e 13 62
e 13 63
e 13 69
e 13 70
e 13 74
e 13 83
e 13 90
e 13 94
e 13 96
e 13 105
e 13 108
e 13 110
e 13 113
e 13 120
e 13 124
e 13 129
e 13 130
e 13 139
e 13 141
e 13 153
e 13 162
e 13 168
e 13 178
e 13 188
e 14 17
e 14 18
e 14 20
e 14 22
e 14 23
e 14 24
e 14 31
e 14 37
e 14 44
e 14 53
e 14 60
e 14 72
e 14 80
e 14 83
e 14 98
e 14 129
e 15 17
e 15 18
e 15 19
e 15 20
e 15 21
e 15 22
e 15 23
e 15 25
e 15 27
e 15 30
e 15 34
e 15 36
e 15 37
e 15 39
e 15 40
e 15 43
e 15 47
e 15 48
e 15 50
e 15 52
e 15 53
e 15 55
e 15 57
e 15 64
e 15 65
e 15 71
e 15 77
e 15 78
e 15 85
e 15 87
e 15 104
e 15 106
e 15 111
e 15 117
e 15 143
e 15 144
e 15 145
e 15 147
e 15 170
e 15 178
e 15 182
e 15 186
e 16 17
e 16 18
e 16 19
e 16 20
e 16 21
e 16 23
e 16 24
e 16 25
e 16 26
e 16 29
e 16 33
e 16 34
e 16 41
e 16 43
e 16 49
e 16 58
e 16 62
e 16 82
e 16 85
e 16 88
e 16 90
e 16 95
e 16 99
e 16 102
e 16 103
e 16 105
e 16 109
e 16 114
e 16 120
e 16 122
e 16 132
e 16 133
e 16 136
e 16 138
e 16 142
e 16 151
e 16 165
e 16 168
e 16 183
e 16 186
e 16 187
e 17 18
e 17 19
e 17 20
e 17 21
e 17 22
e 17 23
e 17 24
e 17 25
e 17 26
e 17 27
e 17 29
e 17 30
e 17 31
e 17 32
e 17 33
e 17 35
e 17 36
e 17 37
e 17 38
e 17 39
e 17 40
e 17 41
e 17 42
e 17 43
e 17 45
e 17 48
e 17 49
e 17 50
e 17 51
e 17 52
e 17 53
e 17 55
e 17 57
e 17 60
e 17 62
e 17 63
e 17 64
e 17 65
e 17 68
e 17 71
e 17 73
e 17 78
e 17 81
e 17 82
e 17 86
e 17 90
e 17 91
e 17 96
e 17 99
e 17 101
e 17 104
e 17 108
e 17 112
e 17 117
e 17 123
e 17 140
e 17 142
e 17 144
e 17 146
e 17 148
e 17 151
e 17 153
e 17 156
e 17 158
e 17 166
e 17 168
e 17 175
e 17 180
e 17 183
e 17 184
e 17 185
e 17 194
e 17 195
e 18 19
e 18 20
e 18 21
e 18 22
e 18 23
e 18 24
e 18 25
e 18 26
e 18 27
e 18 28
e 18 29
e 18 31
e 18 32
e 18 33
e 18 36
e 18 37
e 18 38
e 18 39
e 18 40
e 18 44
e 18 45
e 18 47
e 18 48
e 18 49
e 18 50
e 18 52
e 18 56
e 18 60
e 18 61
e 18 63
e 18 71
e 18 73
e 18 76
e 18 77
e 18 78
e 18 88
e 18 90
e 18 92
e 18 96
e 18 99
e 18 103
e 18 109
e 18 111
e 18 115
e 18 117
e 18 126
e 18 133
e 18 138
e 18 139
e 18 141
e 18 143
e 18 146
e 18 147
e 18 151
e 18 153
e 18 154
e 18 158
e 18 159
e 18 163
e 18 169
e 18 176
e 18 185
e 18 193
e 19 20
e 19 21
e 19 22
e 19 23
e 19 24
e 19 26
e 19 27
e 19 28
e 19 30
e 19 32
e 19 33
e 19 35
e 19 37
e 19 38
e 19 40
e 19 41
e 19 42
e 19 45
e 19 46
e 19 51
e 19 52
e 19 55
e 19 57
e 19 59
e 19 62
e 19 66
e 19 69
e 19 70
e 19 78
e 19 91
e 19 94
e 19 95
e 19 99
e 19 106
e 19 112
e 19 116
e 19 124
e 19 128
e 19 130
e 19 131
e 19 134
e 19 135
e 19 146
e 19 152
e 19 160
e 19 166
e 19 181
e 19 188
e 20 21
e 20 22
e 20 23
e 20 24
e 20 25
e 20 26
e 20 29
e 20 31
e 20 32
e 20 33
e 20 35
e 20 36
e 20 37
e 20 38
e 20 40
e 20 41
e 20 42
e 20 44
e 20 45
e 20 46
e 20 48
e 20 51
e 20 52
e 20 53
e 20 55
e 20 56
e 20 59
e 20 60
e 20 62
e 20 63
e 20 64
e 20 68
e 20 69
e 20 73
e 20 75
e 20 76
e 20 77
e 20 79
e 20 80
e 20 81
e 20 83
e 20 87
e 20 89
e 20 91
e 20 92
e 20 93
e 20 95
e 20 96
e 20 100
e 20 101
e 20 105
e 20 109
e 20 115
e 20 118
e 20 121
e 20 123
e 20 125
e 20 138
e 20 139
e 20 140
e 20 142
e 20 143
e 20 144
e 20 146
e 20 149
e 20 150
e 20 152
e 20 161
e 20 163
e 20 166
e 20 168
e 20 177
e 20 178
e 20 183
e 20 189
e 20 190
e 20 191
e 20 193
e 20 194
e 20 195
e 21 22
e 21 23
e 21 25
e 21 26
e 21 27
e 21 28
e 21 29
e 21 31
e 21 32
e 21 33
e 21 34
e 21 35
e 21 38
e 21 39
e 21 40
e 21 42
e 21 43
e 21 44
e 21 45
e 21 46
e 21 53
e 21 54
e 21 56
e 21 59
e 21 60
e 21 61
e 21 62
e 21 64
e 21 69
e 21 71
e 21 74
e 21 76
e 21 80
e 21 83
e 21 85
e 21 90
e 21 91
e 21 93
e 21 97
e 21 98
e 21 100
e 21 101
e 21 102
e 21 106
e 21 107
e 21 111
e 21 114
e 21 121
e 21 123
e 21 127
e 21 129
e 21 130
e 21 131
e 21 133
e 21 135
e 21 140
e 21 142
e 21 143
e 21 146
e 21 148
e 21 153
e 21 155
e 21 156
e 21 157
e 21 171
e 21 173
e 21 175
e 21 181
e 21 186
e 21 187
e 22 23
e 22 24
e 22 25
e 22 27
e 22 28
e 22 29
e 22 32
e 22 36
e 22 37
e 22 40
e 22 41
e 22 42
e 22 43
e 22 44
e 22 45
e 22 46
e 22 49
e 22 50
e 22 54
e 22 56
e 22 57
e 22 60
e 22 65
e 22 66
e 22 68
e 22 71
e 22 72
e 22 75
e 22 76
e 22 79
e 22 80
e 22 81
e 22 85
e 22 90
e 22 97
e 22 98
e 22 100
e 22 103
e 22 107
e 22 114
e 22 116
e 22 117
e 22 119
e 22 122
e 22 130
e 22 132
e 22 134
e 22 140
e 22 147
e 22 149
e 22 151
e 22 161
e 22 164
e 22 165
e 22 167
e 22 168
e 22 170
e 22 182
e 22 184
e 22 185
e 22 191
e 23 24
e 23 25
e 23 27
e 23 28
e 23 30
e 23 31
e 23 33
e 23 38
e 23 39
e 23 44
e 23 50
e 23 52
e 23 57
e 23 58
e 23 60
e 23 63
e 23 69
e 23 70
e 23 71
e 23 81
e 23 85
e 23 94
e 23 97
e 23 101
e 23 102
e 23 111
e 23 121
e 23 124
e 23 143
e 23 145
e 23 146
e 23 147
e 23 148
e 23 150
e 23 152
e 23 169
e 23 176
e 23 192
e 23 194
e 24 26
e 24 27
e 24 30
e 24 32
e 24 33
e 24 34
e 24 35
e 24 36
e 24 38
e 24 39
e 24 41
e 24 42
e 24 44
e 24 45
e 24 46
e 24 48
e 24 49
e 24 54
e 24 56
e 24 58
e 24 61
e 24 63
e 24 65
e 24 70
e 24 86
e 24 98
e 24 104
e 24 107
e 24 108
e 24 110
e 24 120
e 24 122
e 24 124
e 24 129
e 24 131
e 24 137
e 24 138
e 24 148
e 24 155
e 24 157
e 24 160
e 24 171
e 24 174
e 24 186
e 24 195
e 25 26
e 25 27
e 25 28
e 25 29
e 25 30
e 25 32
e 25 33
e 25 34
e 25 35
e 25 37
e 25 38
e 25 39
e 25 41
e 25 43
e 25 47
e 25 50
e 25 51
e 25 54
e 25 55
e 25 56
e 25 57
e 25 58
e 25 59
e 25 63
e 25 64
e 25 65
e 25 70
e 25 72
e 25 73
e 25 75
e 25 76
e 25 79
e 25 88
e 25 89
e 25 93
e 25 95
e 25 99
e 25 100
e 25 105
e 25 108
e 25 119
e 25 122
e 25 125
e 25 144
e 25 147
e 25 150
e 25 156
e 25 158
e 25 163
e 25 169
e 25 177
e 25 178
e 25 179
e 25 185
e 26 27
e 26 28
e 26 29
e 26 30
e 26 32
e 26 34
e 26 35
e 26 39
e 26 42
e 26 44
e 26 46
e 26 47
e 26 50
e 26 51
e 26 52
e 26 54
e 26 59
e 26 64
e 26 67
e 26 69
e 26 70
e 26 73
e 26 74
e 26 84
e 26 85
e 26 94
e 26 95
e 26 97
e 26 101
e 26 102
e 26 105
e 26 109
e 26 114
e 26 116
e 26 124
e 26 126
e 26 127
e 26 128
e 26 132
e 26 135
e 26 136
e 26 147
e 26 151
e 26 159
e 26 161
e 26 167
e 26 172
e 26 179
e 26 183
e 26 190
e 26 192
e 26 195
e 27 28
e 27 29
e 27 30
e 27 31
e 27 34
e 27 36
e 27 40
e 27 47
e 27 48
e 27 50
e 27 53
e 27 54
e 27 55
e 27 56
e 27 57
e 27 59
e 27 62
e 27 66
e 27 67
e 27 68
e 27 70
e 27 84
e 27 85
e 27 90
e 27 91
e 27 94
e 27 97
e 27 105
e 27 107
e 27 108
e 27 117
e 27 124
e 27 133
e 27 134
e 27 135
e 27 137
e 27 142
e 27 145
e 27 152
e 27 154
e 27 162
e 27 165
e 27 171
e 27 172
e 27 180
e 27 182
e 27 195
e 28 29
e 28 30
e 28 31
e 28 33
e 28 34
e 28 35
e 28 36
e 28 38
e 28 39
e 28 42
e 28 46
e 28 50
e 28 51
e 28 53
e 28 56
e 28 59
e 28 65
e 28 66
e 28 67
e 28 68
e 28 69
e 28 73
e 28 74
e 28 75
e 28 77
e 28 88
e 28 92
e 28 93
e 28 94
e 28 101
e 28 109
e 28 110
e 28 112
e 28 118
e 28 119
e 28 121
e 28 126
e 28 132
e 28 134
e 28 136
e 28 138
e 28 143
e 28 152
e 28 153
e 28 155
e 28 159
e 28 163
e 28 164
e 28 168
e 28 171
e 28 180
e 28 192
e 29 30
e 29 31
e 29 32
e 29 33
e 29 34
e 29 35
e 29 36
e 29 37
e 29 38
e 29 40
e 29 44
e 29 45
e 29 49
e 29 54
e 29 56
e 29 57
e 29 68
e 29 78
e 29 81
e 29 82
e 29 84
e 29 85
e 29 90
e 29 92
e 29 102
e 29 107
e 29 113
e 29 115
e 29 117
e 29 129
e 29 131
e 29 137
e 29 157
e 29 162
e 29 165
e 29 166
e 29 167
e 29 178
e 29 179
e 30 34
e 30 35
e 30 36
e 30 40
e 30 42
e 30 46
e 30 47
e 30 49
e 30 51
e 30 53
e 30 55
e 30 57
e 30 60
e 30 63
e 30 65
e 30 66
e 30 68
e 30 78
e 30 87
e 30 96
e 30 97
e 30 99
e 30 113
e 30 116
e 30 127
e 30 128
e 30 135
e 30 139
e 30 142
e 30 149
e 30 150
e 30 158
e 30 164
e 30 169
e 30 175
e 30 177
e 30 191
e 30 195
e 31 32
e 31 36
e 31 37
e 31 39
e 31 41
e 31 42
e 31 46
e 31 47
e 31 48
e 31 51
e 31 54
e 31 55
e 31 60
e 31 63
e 31 64
e 31 66
e 31 67
e 31 68
e 31 70
e 31 71
e 31 72
e 31 73
e 31 77
e 31 79
e 31 82
e 31 85
e 31 105
e 31 107
e 31 112
e 31 113
e 31 116
e 31 117
e 31 120
e 31 122
e 31 129
e 31 136
e 31 137
e 31 142
e 31 144
e 31 145
e 31 148
e 31 149
e 31 154
e 31 155
e 31 161
e 31 163
e 31 164
e 31 168
e 31 170
e 31 175
e 31 176
e 31 182
e 31 184
e 31 188
e 31 189
e 32 33
e 32 34
e 32 40
e 32 46
e 32 48
e 32 52
e 32 57
e 32 58
e 32 60
e 32 65
e 32 75
e 32 80
e 32 117
e 32 150
e 32 152
e 32 163
e 32 173
e 32 174
e 32 181
e 32 186
e 32 188
e 32 190
e 32 191
e 33 35
e 33 36
e 33 40
e 33 42
e 33 47
e 33 49
e 33 51
e 33 53
e 33 58
e 33 59
e 33 62
e 33 63
e 33 64
e 33 65
e 33 67
e 33 70
e 33 74
e 33 78
e 33 87
e 33 89
e 33 93
e 33 94
e 33 95
e 33 96
e 33 98
e 33 100
e 33 104
e 33 108
e 33 115
e 33 118
e 33 119
e 33 123
e 33 125
e 33 128
e 33 129
e 33 131
e 33 136
e 33 139
e 33 157
e 33 161
e 33 162
e 33 163
e 33 172
e 33 182
e 33 186
e 33 191
e 34 40
e 34 41
e 34 44
e 34 45
e 34 47
e 34 49
e 34 51
e 34 52
e 34 54
e 34 59
e 34 61
e 34 63
e 34 68
e 34 77
e 34 78
e 34 96
e 34 102
e 34 104
e 34 119
e 34 125
e 34 133
e 34 134
e 34 137
e 34 138
e 34 149
e 34 152
e 34 159
e 34 162
e 34 173
e 34 174
e 34 187
e 34 191
e 35 37
e 35 49
e 35 50
e 35 51
e 35 53
e 35 58
e 35 63
e 35 82
e 35 84
e 35 88
e 35 92
e 35 96
e 35 100
e 35 102
e 35 106
e 35 108
e 35 113
e 35 116
e 35 117
e 35 124
e 35 126
e 35 130
e 35 138
e 35 145
e 35 155
e 35 164
e 35 179
e 36 39
e 36 41
e 36 44
e 36 45
e 36 47
e 36 49
e 36 53
e 36 58
e 36 64
e 36 72
e 36 75
e 36 79
e 36 87
e 36 88
e 36 93
e 36 113
e 36 126
e 36 145
e 36 157
e 36 165
e 37 38
e 37 39
e 37 41
e 37 47
e 37 48
e 37 53
e 37 66
e 37 73
e 37 74
e 37 83
e 37 84
e 37 92
e 37 93
e 37 122
e 37 126
e 37 131
e 37 139
e 37 154
e 37 169
e 37 172
e 37 182
e 37 188
e 37 189
e 38 49
e 38 50
e 38 54
e 38 56
e 38 57
e 38 58
e 38 61
e 38 64
e 38 69
e 38 75
e 38 80
e 38 85
e 38 87
e 38 89
e 38 92
e 38 109
e 38 112
e 38 123
e 38 125
e 38 133
e 38 134
e 38 135
e 38 151
e 38 156
e 38 158
e 38 179
e 38 185
e 39 43
e 39 46
e 39 55
e 39 56
e 39 57
e 39 64
e 39 65
e 39 70
e 39 72
e 39 73
e 39 86
e 39 89
e 39 95
e 39 101
e 39 106
e 39 107
e 39 110
e 39 114
e 39 117
e 39 119
e 39 120
e 39 124
e 39 127
e 39 130
e 39 134
e 39 136
e 39 152
e 39 163
e 39 170
e 39 189
e 40 42
e 40 47
e 40 51
e 40 56
e 40 66
e 40 76
e 40 78
e 40 79
e 40 81
e 40 88
e 40 93
e 40 108
e 40 114
e 40 115
e 40 119
e 40 126
e 40 132
e 40 140
e 40 145
e 40 146
e 40 169
e 40 170
e 40 184
e 40 194
e 41 42
e 41 44
e 41 45
e 41 50
e 41 54
e 41 60
e 41 61
e 41 66
e 41 75
e 41 79
e 41 81
e 41 82
e 41 84
e 41 85
e 41 87
e 41 93
e 41 94
e 41 106
e 41 115
e 41 119
e 41 120
e 41 124
e 41 126
e 41 127
e 41 130
e 41 131
e 41 141
e 41 147
e 41 156
e 41 159
e 41 161
e 41 163
e 41 168
e 41 170
e 41 176
e 41 177
e 41 180
e 41 185
e 41 193
e 41 194
e 41 195
e 42 44
e 42 45
e 42 49
e 42 51
e 42 54
e 42 59
e 42 61
e 42 72
e 42 74
e 42 76
e 42 80
e 42 81
e 42 84
e 42 88
e 42 101
e 42 114
e 42 130
e 42 140
e 42 147
e 42 161
e 42 170
e 42 177
e 42 184
e 43 46
e 43 48
e 43 49
e 43 54
e 43 55
e 43 61
e 43 62
e 43 67
e 43 71
e 43 72
e 43 75
e 43 77
e 43 81
e 43 87
e 43 88
e 43 95
e 43 96
e 43 102
e 43 104
e 43 107
e 43 109
e 43 110
e 43 111
e 43 122
e 43 123
e 43 129
e 43 141
e 43 154
e 43 169
e 43 180
e 43 183
e 43 186
e 43 187
e 43 188
e 43 195
e 44 45
e 44 52
e 44 71
e 44 77
e 44 79
e 44 102
e 44 106
e 44 110
e 44 118
e 44 121
e 44 123
e 44 129
e 44 133
e 44 137
e 44 143
e 44 145
e 44 146
e 44 165
e 44 173
e 44 174
e 44 178
e 44 193
e 44 194
e 45 52
e 45 53
e 45 57
e 45 62
e 45 64
e 45 66
e 45 67
e 45 76
e 45 79
e 45 105
e 45 120
e 45 132
e 45 139
e 45 143
e 45 174
e 45 194
e 46 57
e 46 61
e 46 64
e 46 75
e 46 80
e 46 86
e 46 88
e 46 90
e 46 93
e 46 97
e 46 100
e 46 118
e 46 120
e 46 121
e 46 122
e 46 128
e 46 131
e 46 134
e 46 135
e 46 136
e 46 138
e 46 140
e 46 152
e 46 155
e 46 159
e 46 160
e 46 161
e 46 169
e 46 174
e 47 48
e 47 53
e 47 54
e 47 62
e 47 63
e 47 68
e 47 76
e 47 84
e 47 91
e 47 95
e 47 112
e 47 131
e 47 153
e 47 168
e 47 171
e 47 172
e 47 182
e 47 190
e 48 57
e 48 61
e 48 64
e 48 67
e 48 71
e 48 72
e 48 73
e 48 75
e 48 77
e 48 96
e 48 101
e 48 110
e 48 113
e 48 119
e 48 121
e 48 141
e 48 167
e 48 171
e 48 176
e 48 180
e 48 183
e 49 60
e 49 68
e 49 74
e 49 87
e 49 98
e 49 102
e 49 119
e 49 124
e 49 127
e 49 131
e 49 134
e 49 135
e 49 138
e 49 148
e 49 154
e 49 155
e 49 159
e 49 170
e 49 171
e 49 187
e 50 52
e 50 60
e 50 69
e 50 73
e 50 83
e 50 101
e 50 104
e 50 105
e 50 107
e 50 128
e 50 146
e 50 150
e 50 152
e 50 165
e 50 176
e 50 185
e 51 52
e 51 61
e 51 68
e 51 71
e 51 76
e 51 77
e 51 78
e 51 83
e 51 89
e 51 90
e 51 95
e 51 97
e 51 105
e 51 106
e 51 121
e 51 122
e 51 124
e 51 128
e 51 147
e 51 149
e 51 164
e 51 167
e 51 169
e 52 69
e 52 74
e 52 79
e 52 80
e 52 82
e 52 87
e 52 92
e 52 105
e 52 111
e 52 115
e 52 125
e 52 137
e 52 164
e 52 170
e 52 189
e 53 55
e 53 58
e 53 67
e 53 75
e 53 77
e 53 81
e 53 85
e 53 86
e 53 88
e 53 95
e 53 111
e 53 112
e 53 115
e 53 117
e 53 119
e 53 123
e 53 126
e 53 137
e 53 147
e 53 153
e 53 158
e 53 162
e 53 164
e 53 165
e 53 166
e 53 168
e 53 179
e 53 186
e 53 193
e 54 55
e 54 75
e 54 80
e 54 84
e 54 106
e 54 109
e 54 113
e 54 127
e 54 129
e 54 133
e 54 138
e 54 149
e 54 151
e 54 156
e 54 158
e 54 162
e 54 171
e 54 176
e 54 177
e 54 179
e 54 185
e 54 190
e 54 193
e 55 58
e 55 70
e 55 76
e 55 81
e 55 82
e 55 89
e 55 92
e 55 96
e 55 98
e 55 99
e 55 103
e 55 111
e 55 112
e 55 115
e 55 118
e 55 136
e 55 143
e 55 146
e 55 148
e 55 161
e 55 166
e 55 177
e 55 182
e 56 58
e 56 59
e 56 62
e 56 66
e 56 70
e 56 73
e 56 74
e 56 77
e 56 83
e 56 86
e 56 94
e 56 95
e 56 96
e 56 98
e 56 107
e 56 111
e 56 123
e 56 124
e 56 127
e 56 129
e 56 135
e 56 141
e 56 145
e 56 150
e 56 160
e 56 168
e 56 173
e 56 187
e 56 192
e 57 58
e 57 61
e 57 65
e 57 72
e 57 75
e 57 80
e 57 92
e 57 98
e 57 99
e 57 108
e 57 130
e 57 133
e 57 150
e 57 151
e 57 166
e 57 168
e 57 173
e 57 194
e 58 62
e 58 100
e 58 101
e 58 121
e 58 135
e 58 142
e 58 143
e 58 146
e 58 156
e 58 159
e 59 60
e 59 66
e 59 69
e 59 70
e 59 71
e 59 72
e 59 73
e 59 76
e 59 78
e 59 83
e 59 86
e 59 88
e 59 96
e 59 101
e 59 104
e 59 105
e 59 108
e 59 114
e 59 119
e 59 131
e 59 132
e 59 135
e 59 138
e 59 143
e 59 148
e 59 166
e 59 170
e 59 176
e 59 188
e 59 189
e 59 191
e 59 192
e 60 61
e 60 65
e 60 67
e 60 69
e 60 70
e 60 74
e 60 90
e 60 91
e 60 92
e 60 93
e 60 94
e 60 96
e 60 106
e 60 107
e 60 116
e 60 123
e 60 140
e 60 144
e 60 157
e 60 161
e 60 163
e 60 174
e 60 180
e 60 185
e 60 188
e 60 194
e 60 195
e 61 62
e 61 66
e 61 67
e 61 78
e 61 80
e 61 81
e 61 97
e 61 98
e 61 111
e 61 114
e 61 115
e 61 117
e 61 127
e 61 128
e 61 130
e 61 135
e 61 151
e 61 154
e 61 155
e 61 158
e 61 161
e 61 166
e 61 167
e 62 63
e 62 72
e 62 75
e 62 79
e 62 83
e 62 84
e 62 85
e 62 86
e 62 91
e 62 110
e 62 115
e 62 128
e 62 145
e 62 146
e 62 156
e 62 158
e 62 171
e 62 186
e 62 189
e 62 194
e 63 87
e 63 93
e 63 97
e 63 98
e 63 103
e 63 137
e 63 141
e 63 168
e 63 171
e 64 67
e 64 68
e 64 74
e 64 76
e 64 85
e 64 86
e 64 90
e 64 91
e 64 99
e 64 101
e 64 110
e 64 114
e 64 116
e 64 120
e 64 149
e 64 158
e 64 159
e 64 173
e 64 177
e 64 185
e 64 188
e 65 76
e 65 79
e 65 84
e 65 86
e 65 87
e 65 91
e 65 106
e 65 107
e 65 110
e 65 112
e 65 150
e 65 157
e 65 164
e 65 186
e 66 69
e 66 71
e 66 78
e 66 82
e 66 87
e 66 94
e 66 105
e 66 124
e 66 125
e 66 136
e 67 88
e 67 128
e 67 154
e 67 159
e 67 160
e 68 74
e 68 86
e 68 89
e 68 103
e 68 106
e 68 111
e 68 116
e 68 118
e 68 142
e 68 143
e 68 151
e 68 152
e 68 157
e 68 159
e 68 164
e 68 171
e 68 173
e 68 174
e 68 181
e 68 183
e 68 189
e 69 72
e 69 77
e 69 84
e 69 89
e 69 109
e 69 121
e 69 132
e 69 142
e 69 154
e 69 169
e 70 72
e 70 73
e 70 90
e 70 109
e 70 113
e 70 118
e 70 126
e 70 127
e 70 138
e 70 153
e 70 156
e 70 157
e 70 160
e 70 178
e 70 185
e 70 194
e 71 74
e 71 76
e 71 80
e 71 83
e 71 97
e 71 98
e 71 99
e 71 108
e 71 109
e 71 110
e 71 129
e 71 131
e 71 133
e 71 139
e 71 166
e 71 176
e 71 194
e 72 83
e 72 84
e 72 92
e 72 103
e 72 111
e 72 120
e 72 121
e 72 122
e 72 129
e 73 94
e 73 112
e 73 151
e 73 155
e 73 164
e 74 80
e 74 87
e 74 91
e 74 98
e 74 102
e 74 103
e 74 104
e 74 110
e 74 127
e 74 140
e 74 150
e 74 172
e 74 175
e 74 176
e 74 189
e 74 193
e 75 102
e 75 112
e 75 140
e 75 146
e 75 147
e 75 159
e 76 82
e 76 86
e 76 89
e 76 108
e 76 109
e 76 114
e 76 118
e 76 120
e 76 121
e 76 125
e 76 134
e 76 145
e 76 153
e 76 191
e 77 81
e 77 87
e 77 89
e 77 90
e 77 97
e 77 98
e 77 126
e 77 130
e 77 137
e 77 144
e 77 148
e 77 157
e 77 160
e 77 176
e 78 82
e 78 89
e 78 90
e 78 91
e 78 98
e 78 100
e 78 101
e 78 138
e 78 140
e 78 141
e 78 145
e 78 149
e 78 155
e 78 184
e 78 186
e 78 189
e 79 84
e 79 91
e 79 99
e 79 109
e 79 117
e 79 118
e 79 154
e 79 184
e 79 190
e 79 192
e 80 82
e 80 85
e 80 88
e 80 89
e 80 102
e 80 103
e 80 115
e 80 121
e 80 125
e 80 126
e 80 137
e 80 161
e 80 166
e 80 184
e 80 187
e 81 93
e 81 102
e 81 115
e 81 118
e 81 119
e 81 122
e 81 126
e 81 130
e 81 154
e 81 156
e 81 165
e 81 169
e 81 172
e 81 173
e 81 177
e 82 83
e 82 89
e 82 103
e 82 123
e 82 131
e 82 150
e 82 193
e 83 86
e 83 91
e 83 97
e 83 99
e 83 101
e 83 104
e 83 114
e 83 115
e 83 116
e 83 117
e 83 144
e 83 172
e 83 183
e 84 86
e 84 104
e 84 121
e 84 123
e 84 153
e 84 164
e 84 170
e 84 177
e 84 178
e 85 91
e 85 95
e 85 116
e 85 144
e 85 146
e 85 148
e 85 158
e 85 173
e 85 195
e 86 101
e 86 115
e 86 132
e 86 141
e 86 153
e 86 166
e 86 178
e 86 181
e 86 192
e 87 94
e 87 100
e 87 103
e 87 115
e 87 120
e 87 132
e 87 147
e 87 148
e 87 149
e 87 160
e 87 177
e 87 183
e 87 184
e 87 195
e 88 113
e 88 138
e 88 156
e 88 164
e 88 165
e 88 167
e 88 170
e 89 104
e 89 111
e 89 114
e 89 116
e 89 117
e 89 125
e 89 130
e 89 136
e 89 149
e 89 156
e 89 162
e 89 163
e 89 168
e 89 172
e 89 181
e 89 191
e 90 93
e 90 107
e 90 112
e 90 133
e 90 134
e 90 164
e 90 170
e 91 107
e 91 109
e 91 148
e 91 149
e 91 170
e 91 193
e 92 100
e 92 103
e 92 110
e 92 127
e 92 128
e 92 141
e 92 155
e 92 190
e 93 99
e 93 100
e 93 103
e 93 104
e 93 105
e 93 106
e 93 120
e 93 152
e 93 159
e 93 160
e 93 187
e 93 188
e 94 96
e 94 98
e 94 113
e 94 116
e 94 137
e 94 139
e 94 150
e 94 174
e 95 114
e 95 127
e 95 139
e 95 144
e 95 157
e 95 179
e 95 180
e 95 193
e 96 112
e 96 118
e 96 146
e 96 189
e 97 99
e 97 100
e 97 103
e 97 108
e 97 109
e 97 111
e 97 127
e 97 129
e 97 133
e 97 183
e 98 102
e 98 123
e 98 141
e 98 162
e 98 173
e 99 103
e 99 106
e 99 113
e 99 152
e 99 173
e 99 175
e 99 184
e 100 125
e 100 137
e 100 142
e 100 156
e 100 164
e 100 173
e 100 179
e 101 108
e 101 119
e 101 150
e 101 159
e 101 161
e 101 194
e 102 104
e 102 106
e 102 125
e 102 166
e 102 177
e 102 182
e 103 105
e 103 112
e 103 132
e 103 142
e 103 145
e 103 169
e 103 171
e 103 180
e 104 112
e 104 120
e 104 124
e 104 148
e 104 155
e 104 182
e 105 110
e 105 116
e 105 130
e 105 145
e 105 160
e 105 161
e 105 170
e 105 187
e 105 191
e 106 108
e 106 126
e 106 128
e 106 162
e 106 165
e 106 176
e 106 195
e 107 118
e 107 120
e 107 123
e 107 134
e 107 135
e 107 141
e 107 176
e 108 113
e 108 114
e 108 116
e 108 122
e 108 128
e 108 133
e 108 134
e 108 139
e 109 118
e 109 122
e 109 125
e 109 134
e 109 143
e 109 155
e 109 167
e 109 178
e 109 190
e 110 126
e 110 140
e 110 141
e 111 113
e 111 116
e 111 120
e 111 156
e 111 171
e 111 191
e 112 123
e 112 130
e 112 139
e 112 142
e 112 149
e 112 152
e 112 163
e 112 175
e 112 179
e 112 190
e 113 122
e 113 172
e 113 189
e 114 132
e 114 172
e 114 188
e 115 148
e 115 165
e 115 174
e 115 181
e 115 187
e 115 192
e 116 150
e 116 158
e 116 177
e 116 178
e 116 185
e 116 186
e 117 133
e 117 151
e 117 158
e 117 195
e 118 134
e 118 135
e 118 147
e 118 171
e 119 135
e 119 149
e 119 162
e 119 169
e 119 178
e 120 124
e 120 126
e 120 130
e 120 145
e 120 154
e 120 159
e 120 195
e 121 122
e 121 132
e 121 136
e 121 144
e 121 161
e 121 173
e 121 179
e 121 183
e 122 151
e 122 152
e 122 155
e 122 177
e 122 193
e 123 136
e 123 140
e 123 143
e 123 163
e 124 129
e 124 159
e 124 180
e 125 150
e 125 157
e 125 167
e 125 174
e 125 180
e 125 187
e 126 131
e 126 140
e 126 142
e 126 168
e 126 172
e 127 140
e 127 144
e 127 175
e 127 183
e 127 184
e 128 149
e 128 153
e 128 171
e 129 154
e 129 176
e 129 180
e 129 187
e 130 164
e 131 179
e 131 189
e 132 156
e 132 173
e 132 175
e 132 185
e 132 191
e 133 139
e 133 167
e 133 192
e 134 136
e 134 147
e 134 172
e 134 174
e 134 191
e 135 167
e 135 188
e 135 192
e 136 155
e 136 181
e 136 187
e 137 143
e 137 144
e 137 166
e 137 172
e 138 192
e 139 167
e 139 191
e 140 147
e 140 161
e 140 185
e 141 148
e 141 187
e 142 144
e 142 157
e 142 160
e 142 162
e 142 177
e 142 183
e 142 187
e 142 188
e 143 160
e 143 175
e 144 151
e 144 154
e 144 181
e 145 162
e 145 179
e 145 180
e 146 149
e 146 154
e 146 160
e 146 166
e 146 181
e 146 182
e 147 165
e 147 170
e 148 157
e 148 175
e 149 158
e 149 162
e 149 167
e 149 190
e 149 193
e 150 157
e 150 176
e 151 153
e 151 189
e 151 192
e 152 195
e 153 160
e 153 189
e 153 190
e 154 162
e 154 183
e 154 185
e 154 186
e 155 168
e 155 188
e 156 182
e 156 190
e 159 160
e 159 180
e 159 192
e 160 179
e 160 191
e 161 167
e 162 163
e 162 175
e 162 176
e 162 181
e 162 194
e 163 166
e 163 169
e 163 180
e 163 184
e 163 188
e 163 190
e 163 195
e 164 175
e 166 186
e 166 188
e 166 194
e 167 175
e 167 182
e 170 178
e 170 192
e 172 182
e 173 180
e 173 184
e 173 186
e 175 178
e 175 192
e 177 187
e 178 184
e 179 192
e 180 193
e 192 193
